144 145 158 157 159 156 155 153 154 160 161 113 112 114 115 116 117 106 105 104 103 547 546 545 544 543 541 542 107 110 111 109 108 173 174 175 172 170 171 169 168 162 163 167 166 164 165 201 200 199 198 202 204 203 208 207 206 205 197 196 195 194 209 210 211 212 213 214 215 216 217 223 224 222 221 220 218 219 193 192 191 190 226 225 189 227 228 229 186 185 184 183 182 188 187 178 179 181 180 177 176 540 538 539 537 536 535 487 486 485 484 483 481 482 475 476 480 479 477 478 548 549 560 561 562 563 564 565 566 567 474 473 472 471 469 470 496 497 519 518 495 494 524 493 490 491 492 525 526 523 522 521 520 517 516 515 514 527 512 513 509 510 511 528 529 530 531 489 532 533 488 534 230 231 233 232 234 235 236 237 240 239 238 246 247 245 244 243 242 241 248 249 250 251 252 254 253 255 256 257 300 301 302 508 507 506 307 303 304 305 306 319 321 320 318 317 316 314 315 374 375 376 377 378 379 380 381 390 392 391 393 394 395 396 371 372 373 322 323 324 325 326 327 328 329 366 342 343 341 340 332 331 330 291 292 269 268 270 293 294 295 296 297 298 299 258 259 260 261 262 263 264 265 266 267 271 272 273 274 275 290 289 288 276 277 278 279 282 281 280 287 286 285 284 283 334 335 333 336 337 338 339 344 345 346 364 365 367 368 369 370 398 397 399 400 361 363 362 347 348 349 350 351 352 414 415 416 413 353 354 355 356 357 358 359 360 401 402 403 404 405 406 407 408 409 385 387 388 389 386 383 384 410 411 412 418 417 419 420 421 422 423 424 425 382 426 427 428 429 431 430 432 433 434 435 437 438 436 443 444 445 446 447 448 449 441 450 451 312 313 311 310 309 308 505 504 503 502 498 501 500 499 452 453 440 442 439 454 455 456 457 458 459 460 461 462 463 464 465 466 467 468 571 570 569 568 20 19 18 17 8 7 6 572 573 5 0 4 1 2 3 9 10 11 16 15 14 13 12 23 22 21 24 25 26 27 28 29 31 30 32 36 37 38 35 33 34 558 559 550 551 101 102 100 99 98 97 96 95 94 93 92 91 555 554 553 552 556 557 41 40 39 42 43 44 45 46 47 48 49 54 53 55 56 83 84 51 52 50 85 86 87 90 89 88 78 79 80 81 82 57 58 59 60 61 63 62 64 76 77 75 74 73 72 65 66 67 68 69 70 71 119 118 120 121 122 123 124 125 126 127 128 129 130 131 132 133 134 135 136 137 138 139 140 141 151 150 149 152 148 147 146 142 143